c\nc This is glucose 4.0 --  based on MiniSAT (Many thanks to MiniSAT team)\nc\nc ========================================[ Problem Statistics ]===========================================\nc |                                                                                                       |\nc |  Number of variables:            26                                                                   |\nc |  Number of clauses:              33                                                                   |\nc |  Parse time:                   0.00 s                                                                 |\nc |                                                                                                       |\nc | Preprocesing is fully done\nc |  Eliminated clauses:           0.00 Mb                                                                |\nc |  Simplification time:          0.00 s                                                                 |\nc |                                                                                                       |\nc ========================================[ MAGIC CONSTANTS ]==============================================\nc | Constants are supposed to work well together :-)                                                      |\nc | however, if you find better choices, please let us known...                                           |\nc |-------------------------------------------------------------------------------------------------------|\nc |                                |                                |                                     |\nc | - Restarts:                    | - Reduce Clause DB:            | - Minimize Asserting:               |\nc |   * LBD Queue    :     50      |   * First     :   2000         |    * size <  30                     |\nc |   * Trail  Queue :   5000      |   * Inc       :    300         |    * lbd  <   6                     |\nc |   * K            :   0.80      |   * Special   :   1000         |                                     |\nc |   * R            :   1.40      |   * Protected :  (lbd)< 30     |                                     |\nc |                                |                                |                                     |\nc ==================================[ Search Statistics (every  10000 conflicts) ]=========================\nc |                                                                                                       |\nc |          RESTARTS           |          ORIGINAL         |              LEARNT              | Progress |\nc |       NB   Blocked  Avg Cfc |    Vars  Clauses Literals |   Red   Learnts    LBD2  Removed |          |\nc =========================================================================================================\nc last restart ## conflicts  :  0 0 \nc =========================================================================================================\nc restarts              : 1 (0 conflicts in avg)\nc blocked restarts      : 0 (multiple: 0) \nc last block at restart : 0\nc nb ReduceDB           : 0\nc nb removed Clauses    : 0\nc nb learnts DL2        : 0\nc nb learnts size 2     : 0\nc nb learnts size 1     : 0\nc conflicts             : 0              (-nan /sec)\nc decisions             : 1              (0.00 % random) (inf /sec)\nc propagations          : 0              (-nan /sec)\nc conflict literals     : 0              (-nan % deleted)\nc nb reduced Clauses    : 0\nc CPU time              : 0 s\n\ns SATISFIABLE\nv -1 -2 -3 4 -5 -6 -7 -8 -9 -10 -11 12 -13 -14 15 -16 17 -18 -19 20 -21 -22 -23 -24 25 -26 0\n'